c Random generated cnf formula, satisfiable: false
p cnf 10 50
-4 -7 -8 0
3 10 -8 0
-7 -3 2 0
7 -10 -2 0
8 -5 3 0
1 10 -8 0
-6 -10 8 0
10 -8 6 0
-5 -3 -7 0
-5 3 1 0
-2 8 7 0
-7 -6 -1 0
4 3 9 0
7 3 -5 0
8 3 -7 0
2 -6 -10 0
1 2 -7 0
-7 9 -10 0
-7 -10 6 0
-3 -8 1 0
-4 5 -3 0
6 -1 4 0
6 5 8 0
-6 8 -9 0
9 2 5 0
9 -2 7 0
3 -2 6 0
2 -1 10 0
-9 -8 -1 0
9 5 4 0
2 3 5 0
8 -2 1 0
5 -8 1 0
7 -6 -8 0
-6 4 1 0
-3 -2 -10 0
9 10 -7 0
-3 -4 -9 0
8 -10 -7 0
3 -4 -9 0
-3 -4 -2 0
8 -3 5 0
-1 -3 9 0
1 -7 -2 0
-2 -8 -6 0
-7 -3 1 0
8 1 7 0
1 -10 -3 0
1 -8 -5 0
9 8 3 0
